Running for instance ./models/r206.txt
Generating routes...
Execution time:  0.1676083  minutes
Academic license - for non-commercial use only
Warning: constraint name "Cliente esta na rota" has a space
Optimize a model with 26 rows, 5000 columns and 45954 nonzeros
Variable types: 0 continuous, 5000 integer (0 binary)
Coefficient statistics:
  Matrix range     [1e+00, 1e+00]
  Objective range  [6e+01, 4e+02]
  Bounds range     [1e+00, 1e+00]
  RHS range        [1e+00, 2e+01]
Found heuristic solution: objective 944.1946646
Presolve removed 0 rows and 889 columns
Presolve time: 0.09s
Presolved: 26 rows, 4111 columns, 39844 nonzeros
Variable types: 0 continuous, 4111 integer (4111 binary)

Root relaxation: objective 4.951177e+02, 61 iterations, 0.00 seconds

    Nodes    |    Current Node    |     Objective Bounds      |     Work
 Expl Unexpl |  Obj  Depth IntInf | Incumbent    BestBd   Gap | It/Node Time

     0     0  495.11769    0    6  944.19466  495.11769  47.6%     -    0s
H    0     0                     511.1230188  495.11769  3.13%     -    0s
H    0     0                     511.0747972  495.11769  3.12%     -    0s
     0     0  499.88530    0   15  511.07480  499.88530  2.19%     -    0s

Cutting planes:
  Zero half: 1

Explored 1 nodes (75 simplex iterations) in 0.14 seconds
Thread count was 8 (of 8 available processors)

Solution count 3: 511.075 511.123 944.195 

Optimal solution found (tolerance 1.00e-04)
Best objective 5.110747972045e+02, best bound 5.110747972045e+02, gap 0.0000%
8 11 19 18
16 14 15 23 22
1 10 20 7 5 17 13 2 21 4 25 24 12
Distance: 511.074797205
Execution time:  0.176821383333  minutes
